1 43 40 37 34 31 28 25 22 19 16 13 10 7 4 2 98 94 90 86 82 78 74 70 66 62 58 54 50 46 41 35 29 23 17 11 6 99 92 85 79 72 65 59 52 45 36 26 15 8 96 87 76 67 56 47 32 18 3 89 75 61 48 27 9 88 69 51 30 97 73 49 20 83 55 14 77 39 84 42 80 21 60 81 93 0 95 64 38 68 71 53 63 33 57 5 44 91 24 12 

